20

C      -0.340846130096831     -1.123926218130788      0.117743045625831
C       0.960358881718167     -0.858219041335579     -0.064863931524411
C       1.145154168545925      0.564190404104081     -0.182610625489899
C      -0.041868361180106      1.177370825393354     -0.072760064496162
C      -1.122828729962110      0.156799525339098      0.131973220086411
O      -1.938489012043168      3.211691342592335     -4.168233085222326
C      -1.728906052802666      2.014538624475948     -4.138022600854153
O      -2.631377248335457      1.039212639880344     -3.910919991841140
C      -2.010985134048949     -0.156680633273870     -3.958290115147451
O      -2.518143509679215     -1.250022449980966     -3.798896439861922
C      -0.602698745677454      0.077571842577321     -4.237646632514649
C      -0.432383016470572      1.388529127159324     -4.346168668230433
H      -0.771887190376411     -2.106165666052910      0.237526180861284
H       1.759793085745365     -1.581519652377499     -0.118271071560551
H       2.100687295985892      1.042415675173962     -0.335476099918596
H      -0.206876296325591      2.242846394254556     -0.122485361905210
H      -1.628456971412746      0.301876116538890      1.090968333161074
H      -1.853229752641531      0.184331637092848     -0.681743624839763
H       0.125269505556824     -0.708342956312363     -4.329201407259193
H       0.469131001460658      1.938434524265472     -4.548303736312496
