20

C      -0.124659414895656     -1.243046381366709      0.536869093733980
C      -0.937375328658839     -0.300906147374960      1.396863342688069
C      -1.487904634348750      0.608877656608343      0.579527639799961
C      -1.043465951799427      0.275338705404131     -0.827224487101376
C       0.468792713134733      0.530909049106317     -0.982981251946108
C       1.098246303005839     -0.509302344899374     -0.048471698565982
C      -1.043086917752554     -1.256057905468570     -0.695542260289663
C       1.885810507150803      0.314863688515641      0.913882032053912
O       1.797343602841856      1.631238966534183      0.605118560612381
O       2.535807479896781     -0.132906558248584      1.845599369430045
C       0.968468650060420      1.830828180978317     -0.448036564628974
O       0.683949473812855      2.927404151361840     -0.903735571947318
H       0.068006222516202     -2.219484305347434      0.982688889566428
H      -1.021216704259128     -0.339498346603902      2.474075062053532
H      -2.103902464151418      1.449706732170800      0.866680851890849
H      -1.682519053773619      0.673368200343553     -1.616204821216843
H       0.815514419169727      0.384147206325666     -2.011480916699376
H       1.760949716106557     -1.178243953339825     -0.607853338942855
H      -2.036204628310824     -1.681016474724524     -0.499637590930887
H      -0.602553989745593     -1.766220119974891     -1.560136339559753
