16

C       0.587768138899538      1.434208471356354     -0.197721750907119
C       1.471936718550822      0.430710310489167     -0.299015077653948
C       1.098676474473093     -1.012461436000868     -0.122523130337506
C      -0.288452526546929     -1.202169900979758      0.496922745769082
C      -1.305586625553957     -0.241121594135219     -0.112487954052265
C      -0.873420400409073      1.216415675564358      0.068196471880747
H       0.924435527951818      2.461283938002722     -0.314714649283374
H       2.514238131012724      0.652192134970038     -0.514583465022461
H       1.843185486195362     -1.506482633680502      0.512009589590061
H       1.136391894468298     -1.501422897121268     -1.103241240913892
H      -0.616722168478971     -2.238116183046018      0.355746253701738
H      -0.232794911956559     -1.031098140952327      1.579699550447901
H      -1.415114014641104     -0.460968903127033     -1.182272710542892
H      -2.289586350355815     -0.393342476316479      0.345168635101796
H      -1.090573000075335      1.542914500092405      1.092186968263243
H      -1.464382373533904      1.849459134884411     -0.603370236041090
