16

C       1.825993477927081      0.152162432252342      0.047408155379572
C       0.593329742831808     -0.330021092379203      0.242588272607476
C      -0.593331915049908      0.330030580051861     -0.242576098553133
C      -1.825993944843481     -0.152162265812654     -0.047407975566642
C       1.229018383809723     -2.084474912820472     -3.665228491857800
C      -0.101709701187273     -2.195366155256923     -3.699778032629537
H       2.691642483872165     -0.378755329010155      0.430892406710247
H       2.006928167675794      1.076307503243778     -0.492110955684202
H       0.470279716568660     -1.261681258457111      0.791010073955303
H      -0.470278220408227      1.261683312143282     -0.791010081828386
H      -2.006927102736047     -1.076298445480957      0.492128131674504
H      -2.691642405837811      0.378734563448825     -0.430921928694748
H       1.862482816296198     -2.963283084600268     -3.596586697183418
H       1.711084406305488     -1.112708200133532     -3.704907873248868
H      -0.583775747732839     -3.167132897036800     -3.660098505446977
H      -0.735174077794697     -1.316557952014874     -3.768419974525412
