10

C       0.631058773030178     -0.021899396577720      0.217639907860155
C      -0.631058825238942      0.021899478736275     -0.217639919844107
Cl      0.000000000000000      0.000000000000000      0.000000000000000
O      -0.008795322334218      0.397027716459977     -0.000000000000000
H      -0.784785469261655     -0.201884123372393     -0.000000000000000
H       0.793580791595873     -0.195143593087584      0.000000000000000
H       1.070441772768782      0.818171019398089      0.746333541138863
H       1.249691178450273     -0.898685963508858      0.053835372677226
H      -1.249691286702759      0.898686067192289     -0.053835575941812
H      -1.070441612307533     -0.818171205240078     -0.746333325890312
