10

C       0.688567069724736     -0.247206890990400      0.042476516130945
C      -0.780226238712699      0.120654594437953      0.020348263764720
Cl      1.672124905804242      1.077157011582689     -0.617232767185579
H      -0.974635482012738      1.013052330563110      0.624351911069161
O      -1.632172521461221      2.651986483722641      2.701675800062430
H      -2.612428973246872      2.651986483722641      2.701675800062430
H       1.025023330110979     -0.440583880085899      1.064954985532548
H       0.874532871769943     -1.139337174489364     -0.562155568359316
H      -1.380460771761115     -0.698963416870780      0.427845391206046
H      -1.124925684923359      0.315227425852700     -1.000588732158526
