9

N      -0.433941128737962      0.636939123846288     -3.893918034146782
H       0.540852843270219      0.514956476779673     -4.221996254615528
H      -1.047782471627550     -0.134058146115943     -4.215578491917628
H      -0.872708540406948      1.537842614317999     -4.215745042940870
C      -0.138864026157470     -0.002030004424280      0.009038029800620
H      -0.522417518452647     -0.841624297862717     -0.574802631529685
H      -0.426852979038240     -0.116117642082009      1.056391018395889
H      -0.536049056412961      0.936026666752934     -0.384912010232012
Cl      1.624183580061318      0.023745277616072     -0.105714406434814
