9

N      -0.722078870851237     -0.000434812264653     -0.025309098042525
H      -1.125408850758526      0.504072866113139      0.775090676832960
H      -1.097069081087050     -0.958002919978261     -0.008339582266803
H      -1.067295112897431      0.451948700544508     -0.882057077319450
C       0.752675997954261      0.000453563518944      0.026381022951641
H       1.054603362257459     -0.490456832776195      0.953459796896683
H       1.086911011843881      1.039431879245471      0.005424369583232
H       1.117661543538655     -0.547012444402956     -0.844650108635732
Cl      4.665883938198892      0.305672353212012     -0.604649815993290
