14

C       0.003382420630426     -0.039303045948552     -0.335394115225155
C       1.451992516188628      0.070612387875310      0.135182419336342
C      -0.680809649475427     -1.262999355721593      0.269950992309354
C      -0.775026452833844      1.237053905440521     -0.023966581492775
Br      0.023139539682751     -0.268875563930110     -2.294462163631154
H       2.027066847655752     -0.827665566303056     -0.117855305003377
H       1.960977677728365      0.926007953995259     -0.324025848703249
H       1.501126289895937      0.200256957602588      1.222181167413302
H      -0.147862512832985     -2.187617851497605      0.019576161790051
H      -1.710016844335692     -1.369412677453470     -0.092059483652688
H      -0.719867655765260     -1.188499691543705      1.362522606375646
H      -1.806093634920432      1.180022261069442     -0.391783096620687
H      -0.817979637611877      1.414930575284619      1.056451689144636
H      -0.310028904006310      2.115489711130281     -0.486318442040206
