14

C      -0.010195582866646     -0.038815438663729     -0.368767059914417
C       1.449242088975184      0.114872521198244      0.063109250636729
C      -0.626716861796015     -1.285661270692612      0.267921811170508
C      -0.813076021666057      1.206761621738958      0.010727941620817
Cl     -0.059602756768774     -0.226912843765687     -2.155788214747640
H       2.044177417719947     -0.762131377905745     -0.216525660523344
H       1.912827159896014      0.994602848777857     -0.397807048555805
H       1.525917822784413      0.232762812640780      1.149988654065616
H      -0.073914642341295     -2.191089476247944     -0.007559979554012
H      -1.668463863268431     -1.421491726249687     -0.044477054052794
H      -0.616910126709966     -1.212886300215923      1.361398855909696
H      -1.858605007842095      1.121514385687626     -0.306891131131641
H      -0.809272298736637      1.359821106003761      1.095919968698487
H      -0.395407327379646      2.108653137694121     -0.451250333622201
