14

C       0.046354418366463      0.059812271657892      0.173883855090369
C      -1.255639737749731     -0.568223240714072      0.547767693164277
C       1.234569788946739     -0.821310033072905     -0.029029859086677
C       0.032889105143090      1.404785154526835     -0.474401008234108
Cl      1.130362322576860      1.888197393297570      3.711052979809507
H      -1.735897599494703     -1.003794077508343     -0.333527427070351
H      -1.107898327264598     -1.358534523082408      1.290179078224214
H      -1.933861180068281      0.171545473561279      0.984059477542436
H       1.276856191258001     -1.600903613018573      0.737807961140727
H       1.190144522428809     -1.301176832943218     -1.011276051284896
H       2.162512118553427     -0.244780848473567      0.035234473018889
H      -0.699911949304673      2.060998920050068      0.005162564993070
H       1.011714279805185      1.887054319724267     -0.391259693782330
H      -0.221831630619662      1.314527029292754     -1.534601063715661
