7

C      -0.368481618372193     -0.038891844712241     -0.022650378182017
O       0.983550900488360     -0.397585782107552     -0.240937790327216
Cl     -3.886549471481817      1.649198178352635      0.866722649046308
H      -0.564938822695434      0.008740721827377      1.051247611666330
H      -1.014262648158876     -0.794741534759228     -0.475727771714755
H      -0.567971303683196      0.931493686419437     -0.483819532938778
H       1.532103492421337      0.290984753332208      0.171887861496434
