7

C      -0.139114110678004      0.003755897483244      0.001479345075507
Cl      1.627108503684262     -0.043930031201919     -0.017303028474174
O      -3.774083129419570      0.511584071277782      0.001479345075507
H      -0.499389099798809     -0.471177785825629      0.916652638471511
H      -0.520064013796828     -0.533237261479798     -0.869966422774256
H      -0.468541279410615      1.044589181024102     -0.030862532298586
H      -4.754339581205220      0.511584071277782      0.001479345075507
