6
Properties=species:S:1:pos:R:3:initial_charges:R:1:forces:R:3 charge=-1 spin=1 energy=-16327.4584060905 free_energy=-16327.4584060905 stress="-0.010154064951059957 0.0002824855910358889 0.00011320274434471726 0.0002824855910358889 0.0002533794579476252 9.000597064630333e-07 0.00011320274434471726 9.000597064630333e-07 0.00026027867039999324" pbc="F F F"
C       -0.32970246       0.00890157       0.00350612       0.00000000      -0.00064316       0.00002383       0.00001207
Cl       1.51852377      -0.04099830      -0.01614840       0.00000000       0.00311574      -0.00008417      -0.00003314
F       -2.85313839       0.07703132       0.03034087      -1.00000000      -0.00059860       0.00001547       0.00000663
H       -0.66115044      -0.46460127       0.91421868       0.00000000      -0.00062068       0.00017360      -0.00005011
H       -0.68173095      -0.52637784      -0.86425643       0.00000000      -0.00062229      -0.00001279       0.00017143
H       -0.63044304       1.04425656      -0.02897742       0.00000000      -0.00063103      -0.00011594      -0.00010689
6
Properties=species:S:1:pos:R:3:initial_charges:R:1:forces:R:3 charge=-1 spin=1 energy=-16327.4584060905 free_energy=-16327.4584060905 stress="-0.010154064951059957 0.0002824855910358889 0.00011320274434471726 0.0002824855910358889 0.0002533794579476252 9.000597064630333e-07 0.00011320274434471726 9.000597064630333e-07 0.00026027867039999324" pbc="F F F"
C       -0.32977777       0.00890360       0.00350703       0.00000000      -0.00064316       0.00002383       0.00001207
Cl       1.51860685      -0.04100047      -0.01614905       0.00000000       0.00311574      -0.00008417      -0.00003314
F       -2.85315953       0.07703178       0.03034085      -1.00000000      -0.00059860       0.00001547       0.00000663
H       -0.66761603      -0.65331490       0.78491340       0.00000000      -0.00062068       0.00017360      -0.00005011
H       -0.67720647      -0.32002713      -0.96311709       0.00000000      -0.00062229      -0.00001279       0.00017143
H       -0.62848856       1.02661916       0.19918826       0.00000000      -0.00063103      -0.00011594      -0.00010689
6
Properties=species:S:1:pos:R:3:initial_charges:R:1:forces:R:3 charge=-1 spin=1 energy=-16327.4584060905 free_energy=-16327.4584060905 stress="-0.010154064951059957 0.0002824855910358889 0.00011320274434471726 0.0002824855910358889 0.0002533794579476252 9.000597064630333e-07 0.00011320274434471726 9.000597064630333e-07 0.00026027867039999324" pbc="F F F"
C       -0.32976863       0.00890351       0.00350690       0.00000000      -0.00064316       0.00002383       0.00001207
Cl       1.51861057      -0.04099968      -0.01614891       0.00000000       0.00311574      -0.00008417      -0.00003314
F       -2.85318071       0.07703170       0.03034069      -1.00000000      -0.00059860       0.00001547       0.00000663
H       -0.67360329      -0.80897147       0.61679293       0.00000000      -0.00062068       0.00017360      -0.00005011
H       -0.67171202      -0.09660859      -1.01394240       0.00000000      -0.00062229      -0.00001279       0.00017143
H       -0.62798748       0.95885656       0.41813418       0.00000000      -0.00063103      -0.00011594      -0.00010689
6
Properties=species:S:1:pos:R:3:initial_charges:R:1:forces:R:3 charge=-1 spin=1 energy=-16327.4584060905 free_energy=-16327.4584060905 stress="-0.010154064951059957 0.0002824855910358889 0.00011320274434471726 0.0002824855910358889 0.0002533794579476252 9.000597064630333e-07 0.00011320274434471726 9.000597064630333e-07 0.00026027867039999324" pbc="F F F"
C       -0.32115207       0.00867109       0.00341567       0.00000000      -0.00064316       0.00002383       0.00001207
Cl       1.51947061      -0.04101965      -0.01615761       0.00000000       0.00311574      -0.00008417      -0.00003314
F       -2.86929100       0.07746402       0.03050969      -1.00000000      -0.00059860       0.00001547       0.00000663
H       -0.67655500      -0.92168588       0.41711526       0.00000000      -0.00062068       0.00017360      -0.00005011
H       -0.66328968       0.13253936      -1.01177921       0.00000000      -0.00062229      -0.00001279       0.00017143
H       -0.62682436       0.84224311       0.61557958       0.00000000      -0.00063103      -0.00011594      -0.00010689
6
Properties=species:S:1:pos:R:3:initial_charges:R:1:forces:R:3 charge=-1 spin=1 energy=-16327.4584060905 free_energy=-16327.4584060905 stress="-0.010154064951059957 0.0002824855910358889 0.00011320274434471726 0.0002824855910358889 0.0002533794579476252 9.000597064630333e-07 0.00011320274434471726 9.000597064630333e-07 0.00026027867039999324" pbc="F F F"
C       -0.52509374       0.01417697       0.00558420       0.00000000      -0.00064316       0.00002383       0.00001207
Cl       1.53126192      -0.04133798      -0.01628265       0.00000000       0.00311574      -0.00008417      -0.00003314
F       -2.58050655       0.06966716       0.02743963      -1.00000000      -0.00059860       0.00001547       0.00000663
H       -0.70945302      -0.95104064       0.42965335       0.00000000      -0.00062068       0.00017360      -0.00005011
H       -0.69572060       0.13797025      -1.04371542       0.00000000      -0.00062229      -0.00001279       0.00017143
H       -0.65812950       0.86877627       0.63600426       0.00000000      -0.00063103      -0.00011594      -0.00010689
6
Properties=species:S:1:pos:R:3:initial_charges:R:1:forces:R:3 charge=-1 spin=1 energy=-16327.4584060905 free_energy=-16327.4584060905 stress="-0.010154064951059957 0.0002824855910358889 0.00011320274434471726 0.0002824855910358889 0.0002533794579476252 9.000597064630333e-07 0.00011320274434471726 9.000597064630333e-07 0.00026027867039999324" pbc="F F F"
C       -0.89072305       0.02404803       0.00947280       0.00000000      -0.00064316       0.00002383       0.00001207
Cl       1.69537684      -0.04576854      -0.01802792       0.00000000       0.00311574      -0.00008417      -0.00003314
F       -2.45666346       0.06632365       0.02612298      -1.00000000      -0.00059860       0.00001547       0.00000663
H       -0.68338892      -0.94404863       0.42620840       0.00000000      -0.00062068       0.00017360      -0.00005011
H       -0.66977189       0.13616801      -1.03574457       0.00000000      -0.00062229      -0.00001279       0.00017143
H       -0.63247102       0.86148952       0.63065168       0.00000000      -0.00063103      -0.00011594      -0.00010689
6
Properties=species:S:1:pos:R:3:initial_charges:R:1:forces:R:3 charge=-1 spin=1 energy=-16327.4584060905 free_energy=-16327.4584060905 stress="-0.010154064951059957 0.0002824855910358889 0.00011320274434471726 0.0002824855910358889 0.0002533794579476252 9.000597064630333e-07 0.00011320274434471726 9.000597064630333e-07 0.00026027867039999324" pbc="F F F"
C       -1.03197622       0.02786116       0.01097378       0.00000000      -0.00064316       0.00002383       0.00001207
Cl       1.92147171      -0.05187242      -0.02043231       0.00000000       0.00311574      -0.00008417      -0.00003314
F       -2.45865479       0.06637743       0.02614435      -1.00000000      -0.00059860       0.00001547       0.00000663
H       -0.71057944      -0.92486056       0.41977755       0.00000000      -0.00062068       0.00017360      -0.00005011
H       -0.69727494       0.13350957      -1.01611305       0.00000000      -0.00062229      -0.00001279       0.00017143
H       -0.66062780       0.84719686       0.61833307       0.00000000      -0.00063103      -0.00011594      -0.00010689
6
Properties=species:S:1:pos:R:3:initial_charges:R:1:forces:R:3 charge=-1 spin=1 energy=-16327.4584060905 free_energy=-16327.4584060905 stress="-0.010154064951059957 0.0002824855910358889 0.00011320274434471726 0.0002824855910358889 0.0002533794579476252 9.000597064630333e-07 0.00011320274434471726 9.000597064630333e-07 0.00026027867039999324" pbc="F F F"
C       -1.06563235       0.02877024       0.01133223       0.00000000      -0.00064316       0.00002383       0.00001207
Cl       2.05114122      -0.05537487      -0.02181198       0.00000000       0.00311574      -0.00008417      -0.00003314
F       -2.48374648       0.06705579       0.02641227      -1.00000000      -0.00059860       0.00001547       0.00000663
H       -0.73332542      -0.90450807       0.45412270       0.00000000      -0.00062068       0.00017360      -0.00005011
H       -0.72197874       0.09476894      -1.01582232       0.00000000      -0.00062229      -0.00001279       0.00017143
H       -0.68409971       0.86749999       0.58445050       0.00000000      -0.00063103      -0.00011594      -0.00010689
6
Properties=species:S:1:pos:R:3:initial_charges:R:1:forces:R:3 charge=-1 spin=1 energy=-16327.4584060905 free_energy=-16327.4584060905 stress="-0.010154064951059957 0.0002824855910358889 0.00011320274434471726 0.0002824855910358889 0.0002533794579476252 9.000597064630333e-07 0.00011320274434471726 9.000597064630333e-07 0.00026027867039999324" pbc="F F F"
C       -1.09156627       0.02947181       0.01160743       0.00000000      -0.00064316       0.00002383       0.00001207
Cl       2.18178101      -0.05890959      -0.02319844       0.00000000       0.00311574      -0.00008417      -0.00003314
F       -2.50723652       0.06769375       0.02665996      -1.00000000      -0.00059860       0.00001547       0.00000663
H       -0.76064988      -0.90920607       0.44464474       0.00000000      -0.00062068       0.00017360      -0.00005011
H       -0.74874583       0.10667164      -1.01535778       0.00000000      -0.00062229      -0.00001279       0.00017143
H       -0.71122407       0.86249048       0.59432748       0.00000000      -0.00063103      -0.00011594      -0.00010689
6
Properties=species:S:1:pos:R:3:initial_charges:R:1:forces:R:3 charge=-1 spin=1 energy=-16327.4584060905 free_energy=-16327.4584060905 stress="-0.010154064951059957 0.0002824855910358889 0.00011320274434471726 0.0002824855910358889 0.0002533794579476252 9.000597064630333e-07 0.00011320274434471726 9.000597064630333e-07 0.00026027867039999324" pbc="F F F"
C       -1.07920582       0.02913723       0.01147630       0.00000000      -0.00064316       0.00002383       0.00001207
Cl       2.11932514      -0.05721944      -0.02253661       0.00000000       0.00311574      -0.00008417      -0.00003314
F       -2.49598898       0.06738897       0.02654244      -1.00000000      -0.00059860       0.00001547       0.00000663
H       -0.74965378      -0.94641288       0.35433511       0.00000000      -0.00062068       0.00017360      -0.00005011
H       -0.73305268       0.20282593      -1.00236048       0.00000000      -0.00062229      -0.00001279       0.00017143
H       -0.69906536       0.80249222       0.67122666       0.00000000      -0.00063103      -0.00011594      -0.00010689
6
Properties=species:S:1:pos:R:3:initial_charges:R:1:forces:R:3 charge=-1 spin=1 energy=-16327.4584060905 free_energy=-16327.4584060905 stress="-0.010154064951059957 0.0002824855910358889 0.00011320274434471726 0.0002824855910358889 0.0002533794579476252 9.000597064630333e-07 0.00011320274434471726 9.000597064630333e-07 0.00026027867039999324" pbc="F F F"
C       -1.08005671       0.02916045       0.01148542       0.00000000      -0.00064316       0.00002383       0.00001207
Cl       2.12360427      -0.05733539      -0.02258170      -1.00000000       0.00311574      -0.00008417      -0.00003314
F       -2.49662972       0.06740598       0.02654985       0.00000000      -0.00059860       0.00001547       0.00000663
H       -0.75251722      -0.97729853       0.25100755       0.00000000      -0.00062068       0.00017360      -0.00005011
H       -0.73088292       0.30777805      -0.97748515       0.00000000      -0.00062229      -0.00001279       0.00017143
H       -0.70115920       0.72850148       0.74970743       0.00000000      -0.00063103      -0.00011594      -0.00010689
